(set-logic HORN)
(set-info :source |
    Benchmark: C_VC
    Output by Princess (http://www.philipp.ruemmer.org/princess.shtml)
|)
(set-info :status sat)
(declare-heap Heap Addr HeapObject
 defObj
 ((HeapObject 0)) (
  (
   (O_Int (getInt Int))
   (O_UInt (getUInt Int))
   (O_Addr (getAddr Addr))
   (defObj)
  )
))
(declare-fun inv_main18 (Heap Int Int Int AddrRange Int Int Int) Bool)
(declare-fun inv_main2 (Heap Int Int) Bool)
(declare-fun inv_main22 (Heap Int Int Int AddrRange Int Int Int) Bool)
(declare-fun inv_main23 (Heap Int Int Int AddrRange Int Int Int) Bool)
(declare-fun inv_main26 (Heap Int Int Int AddrRange Int Int Int) Bool)
(assert (forall ((var0 Int) (var1 Int) (var2 Heap)) (or (not (and (and (= var2 emptyHeap) (= var1 100000)) (= var0 0))) (inv_main2 var2 var1 var0))))
(assert (forall ((var0 Int) (var1 Int) (var2 Int) (var3 AddrRange) (var4 Int) (var5 Int) (var6 Int) (var7 Heap)) (or (not (and (inv_main18 var7 var6 var5 var4 var3 var2 var1 var0) (and (<= 0 var4) (<= 0 (+ var4 1))))) (inv_main23 var7 var6 var5 var4 var3 var2 var1 var0))))
(assert (forall ((var0 Int) (var1 Int) (var2 Int) (var3 Int) (var4 AddrRange) (var5 Int) (var6 Int) (var7 Int) (var8 Heap) (var9 Int) (var10 Int) (var11 Int) (var12 AddrRange) (var13 Int) (var14 Int) (var15 Int) (var16 Heap)) (or (not (and (inv_main22 var16 var15 var14 var13 var12 var11 var10 var9) (and (and (and (is-O_Int (read var16 (nthAddrRange var12 (+ var13 1)))) (is-O_Int (read var16 (nthAddrRange var12 (+ var13 1))))) (and (and (and (and (and (and (and (= var8 (write var16 (nthAddrRange var12 (+ var13 1)) (O_Int var11))) (= var7 var15)) (= var6 var14)) (= var5 var13)) (= var4 var12)) (= var3 var11)) (= var2 var10)) (= var1 var9))) (= var0 (+ var5 (- 1)))))) (inv_main18 var8 var7 var6 var0 var4 var3 var2 var1))))
(assert (forall ((var0 Int) (var1 Int) (var2 Int) (var3 Int) (var4 Int) (var5 Int) (var6 AddrRange) (var7 Int) (var8 Int) (var9 Int) (var10 Int) (var11 Int) (var12 Int) (var13 Int) (var14 Heap) (var15 Heap) (var16 Int) (var17 Int) (var18 Heap)) (or (not (and (inv_main2 var18 var17 var16) (and (and (and (and (and (and (and (and (and (= var15 (newBatchHeap (batchAlloc var14 (O_Int var13) var12))) (= var11 var10)) (= var9 var12)) (= var8 var7)) (= var6 (newAddrRange (batchAlloc var14 (O_Int var13) var12)))) (and (not (= var5 0)) (and (<= 0 (+ (+ var4 (- 1)) (- 1))) (and (and (and (= var14 var18) (= var10 var17)) (= var12 var4)) (or (and (<= 0 (+ (+ var17 (* (- 1) var4)) (- 1))) (= var5 1)) (and (not (<= 0 (+ (+ var17 (* (- 1) var4)) (- 1)))) (= var5 0))))))) (= var3 (+ var9 (- 2)))) (= var2 3)) (= var1 7)) (= var0 2)))) (inv_main18 var15 var11 var9 var3 var6 var2 var1 var0))))
(assert (forall ((var0 Int) (var1 Int) (var2 Int) (var3 Int) (var4 AddrRange) (var5 Int) (var6 Int) (var7 Int) (var8 Heap)) (or (not (and (inv_main18 var8 var7 var6 var5 var4 var3 var2 var1) (and (and (<= 0 (+ var6 (- 1))) (not (<= 0 (+ var5 1)))) (= var0 0)))) (inv_main26 var8 var7 var6 var0 var4 var3 var2 var1))))
(assert (forall ((var0 Int) (var1 Int) (var2 Int) (var3 Int) (var4 AddrRange) (var5 Int) (var6 Int) (var7 Int) (var8 Heap)) (or (not (and (inv_main26 var8 var7 var6 var5 var4 var3 var2 var1) (and (and (<= 0 (+ (+ var6 (* (- 1) (+ var5 1))) (- 1))) (is-O_Int (read var8 (nthAddrRange var4 var5)))) (= var0 (+ var5 1))))) (inv_main26 var8 var7 var6 var0 var4 var3 var2 var1))))
(assert (forall ((var0 Heap) (var1 Int) (var2 Int) (var3 Int) (var4 AddrRange) (var5 Int) (var6 Int) (var7 Int) (var8 Heap)) (or (not (and (inv_main23 var8 var7 var6 var5 var4 var3 var2 var1) (and (and (is-O_Int (read var8 (nthAddrRange var4 var5))) (is-O_Int (read var8 (nthAddrRange var4 var5)))) (= var0 (write var8 (nthAddrRange var4 var5) (O_Int var2)))))) (inv_main22 var0 var7 var6 var5 var4 var3 var2 var1))))
(assert (forall ((var0 Int) (var1 Int) (var2 Int) (var3 AddrRange) (var4 Int) (var5 Int) (var6 Int) (var7 Heap)) (or (not (and (inv_main18 var7 var6 var5 var4 var3 var2 var1 var0) (and (not (<= 0 var4)) (<= 0 (+ var4 1))))) (inv_main22 var7 var6 var5 var4 var3 var2 var1 var0))))
(assert (forall ((var0 Int) (var1 Int) (var2 Int) (var3 AddrRange) (var4 Int) (var5 Int) (var6 Int) (var7 Heap)) (not (and (inv_main23 var7 var6 var5 var4 var3 var2 var1 var0) (not (is-O_Int (read var7 (nthAddrRange var3 var4))))))))
(assert (forall ((var0 Int) (var1 Int) (var2 Int) (var3 AddrRange) (var4 Int) (var5 Int) (var6 Int) (var7 Heap)) (not (and (inv_main23 var7 var6 var5 var4 var3 var2 var1 var0) (and (is-O_Int (read var7 (nthAddrRange var3 var4))) (not (within var3 (nthAddrRange var3 var4))))))))
(assert (forall ((var0 Int) (var1 Int) (var2 Int) (var3 AddrRange) (var4 Int) (var5 Int) (var6 Int) (var7 Heap)) (not (and (inv_main23 var7 var6 var5 var4 var3 var2 var1 var0) (and (is-O_Int (read var7 (nthAddrRange var3 var4))) (not (is-O_Int (read var7 (nthAddrRange var3 var4)))))))))
(assert (forall ((var0 Int) (var1 Int) (var2 Int) (var3 AddrRange) (var4 Int) (var5 Int) (var6 Int) (var7 Heap)) (not (and (inv_main22 var7 var6 var5 var4 var3 var2 var1 var0) (not (is-O_Int (read var7 (nthAddrRange var3 (+ var4 1)))))))))
(assert (forall ((var0 Int) (var1 Int) (var2 Int) (var3 AddrRange) (var4 Int) (var5 Int) (var6 Int) (var7 Heap)) (not (and (inv_main22 var7 var6 var5 var4 var3 var2 var1 var0) (and (is-O_Int (read var7 (nthAddrRange var3 (+ var4 1)))) (not (within var3 (nthAddrRange var3 (+ var4 1)))))))))
(assert (forall ((var0 Int) (var1 Int) (var2 Int) (var3 AddrRange) (var4 Int) (var5 Int) (var6 Int) (var7 Heap)) (not (and (inv_main22 var7 var6 var5 var4 var3 var2 var1 var0) (and (is-O_Int (read var7 (nthAddrRange var3 (+ var4 1)))) (not (is-O_Int (read var7 (nthAddrRange var3 (+ var4 1))))))))))
(assert (forall ((var0 Int) (var1 Int) (var2 Int) (var3 AddrRange) (var4 Int) (var5 Int) (var6 Int) (var7 Heap)) (not (and (inv_main26 var7 var6 var5 var4 var3 var2 var1 var0) (not (is-O_Int (read var7 (nthAddrRange var3 var4))))))))
(assert (forall ((var0 Int) (var1 Int) (var2 Int) (var3 AddrRange) (var4 Int) (var5 Int) (var6 Int) (var7 Heap)) (not (and (inv_main26 var7 var6 var5 var4 var3 var2 var1 var0) (not (within var3 (nthAddrRange var3 var4)))))))
(assert (forall ((var0 Int) (var1 Int) (var2 Int) (var3 AddrRange) (var4 Int) (var5 Int) (var6 Int) (var7 Heap)) (not (and (inv_main26 var7 var6 var5 var4 var3 var2 var1 var0) (not (is-O_Int (read var7 (nthAddrRange var3 var4))))))))
(assert (forall ((var0 Int) (var1 Int) (var2 Int) (var3 AddrRange) (var4 Int) (var5 Int) (var6 Int) (var7 Heap)) (not (and (inv_main26 var7 var6 var5 var4 var3 var2 var1 var0) (and (is-O_Int (read var7 (nthAddrRange var3 var4))) (not (within var3 (nthAddrRange var3 var4))))))))
(assert (forall ((var0 Int) (var1 Int) (var2 Int) (var3 AddrRange) (var4 Int) (var5 Int) (var6 Int) (var7 Heap)) (not (and (inv_main26 var7 var6 var5 var4 var3 var2 var1 var0) (and (is-O_Int (read var7 (nthAddrRange var3 var4))) (not (<= 0 (+ (getInt (read var7 (nthAddrRange var3 var4))) (* (- 1) var0)))))))))
(check-sat)
